benchmark_str_length/p2_10_3-0.txt
{
	"num_strings": 10,
	"alphabet": "ACGT",
	"strings": [
		"A",
		"",
		"C",
		"ATC",
		"AG",
		"TTA",
		"TT",
		"AA",
		"AGC",
		"GA"
	],
	"str_length":[1,0,1,3,2,3,2,2,3,2]
}